NAME : random101.734.tour
COMMENT : Length = 734
COMMENT : Found by LKH [Keld Helsgaun] Tue Sep  3 17:00:07 2024
TYPE : TOUR
DIMENSION : 101
TOUR_SECTION
1
14
33
65
87
78
64
61
85
76
59
7
99
35
46
9
68
100
48
77
45
80
13
67
94
4
75
31
81
20
98
3
72
22
56
95
86
89
79
19
16
58
90
74
36
41
50
15
25
42
11
26
39
84
96
83
37
47
6
82
38
73
10
51
57
60
62
91
32
55
18
53
8
43
70
40
5
24
71
28
69
29
101
52
44
34
93
92
54
21
12
2
30
27
88
23
97
66
17
63
49
-1
EOF
